python/teste/teste38
4 3
2 3 0 4 1 8
0 8 1 9 2 6
1 2 2 10 0 2
2 5 1 5 0 6
